// Objective function
max: 4000 x1 + 6500 x2 + 5900 x3 + 5400 x4 + 5150 x5 + 10000 x6 + 8400 x7 + 6250 x8;

// Constraints
T: 40 x1 + 50 x2 + 80 x3 + 60 x4 + 45 x5 + 60 x6 + 30 x7 + 25 x8 <= 2500;
S: 40 x1 + 50 x2 + 80 x3 <= 1000;
H: 60 x4 + 45 x5 + 60 x6 <= 1000;
C: 30 x7 + 25 x8 <= 1000;
S1: 40 x1 >= 100;
S2: 50 x2 >= 100;
S3: 80 x3 >= 100;
H1: 60 x4 >= 100;
H2: 45 x5 >= 100;
H3: 60 x6 >= 100;
C1: 30 x7 >= 100;
C2: 25 x8 >= 100;





